  (declare-datatypes () ((MyBool (MyTrue) (MyFalse))))
  (declare-datatypes () ((Unit (Null))))
  (declare-datatypes () ((Nat (Zero) (Succ (proj_Succ_0 Nat)))))
  (declare-datatypes () ((List (Nil (proj_Nil_0 Unit)) (Cons (proj_Cons_0 Nat) (proj_Cons_1 List)))))
  (declare-datatypes () ((Zipper (Zip (proj_Zip_0 List) (proj_Zip_1 List)))))
  (declare-fun tf1 (List List) List)
  (declare-fun tf0 (List List) List)
  (declare-fun myconcat (List List) List)
  (declare-fun tf3 (List) List)
  (declare-fun tf2 (List) List)
  (declare-fun rev (List) List)
  (declare-fun tf5 (List) List)
  (declare-fun tf4 (List) List)
  (declare-fun listrepr (List) List)
  (declare-fun plus (Nat Nat) Nat)
  (declare-fun tf7 (List) Nat)
  (declare-fun tf6 (List) Nat)
  (declare-fun sum (List) Nat)
  (declare-fun tf8 (Zipper) List)
  (declare-fun repr (Zipper) List)
  (declare-fun main (Zipper) Nat)
  (declare-fun tf10 (List) Nat)
  (declare-fun tf9 (List) Nat)
  (declare-fun revNew (List) Nat)
  (declare-fun tf12 (List) Nat)
  (declare-fun tf11 (List) Nat)
  (declare-fun listreprNew (List) Nat)
  (declare-fun tf13 (Zipper) Nat)
  (declare-fun reprNew (Zipper) Nat)
  (declare-fun mainNew (Zipper) Nat)
  (assert (forall ((tv6 Unit) (tv5 List)) (= (tf1 tv5 (Nil tv6)) tv5)))
  (assert (forall ((tv8 List) (tv7 Nat) (tv5 List)) (= (tf1 tv5 (Cons tv7 tv8)) (Cons tv7 (tf0 tv8 tv5)))))
  (assert (forall ((tv3 List) (tv2 List)) (= (tf0 tv2 tv3) (tf1 tv3 tv2))))
  (assert (forall ((tv1 List) (tv0 List)) (= (myconcat tv0 tv1) (tf0 tv0 tv1))))
  (assert (forall ((tv12 Unit)) (= (tf3 (Nil tv12)) (Nil Null))))
  (assert (forall ((tv14 List) (tv13 Nat)) (= (tf3 (Cons tv13 tv14)) (myconcat (tf2 tv14) (Cons tv13 (Nil Null))))))
  (assert (forall ((tv10 List)) (= (tf2 tv10) (tf3 tv10))))
  (assert (forall ((tv9 List)) (= (rev tv9) (tf2 tv9))))
  (assert (forall ((tv18 Unit)) (= (tf5 (Nil tv18)) (Nil Null))))
  (assert (forall ((tv20 List) (tv19 Nat)) (= (tf5 (Cons tv19 tv20)) (Cons tv19 (tf4 tv20)))))
  (assert (forall ((tv16 List)) (= (tf4 tv16) (tf5 tv16))))
  (assert (forall ((tv15 List)) (= (listrepr tv15) (tf4 tv15))))
  (assert (forall ((x Nat)) (= (plus Zero x) x)))
  (assert (forall ((y Nat) (x Nat)) (= (plus (Succ x) y) (Succ (plus x y)))))
  (assert (forall ((tv24 Unit)) (= (tf7 (Nil tv24)) Zero)))
  (assert (forall ((tv26 List) (tv25 Nat)) (= (tf7 (Cons tv25 tv26)) (plus tv25 (tf6 tv26)))))
  (assert (forall ((tv22 List)) (= (tf6 tv22) (tf7 tv22))))
  (assert (forall ((tv21 List)) (= (sum tv21) (tf6 tv21))))
  (assert (forall ((tv29 List) (tv28 List)) (= (tf8 (Zip tv28 tv29)) (myconcat (rev tv28) (listrepr tv29)))))
  (assert (forall ((tv27 Zipper)) (= (repr tv27) (tf8 tv27))))
  (assert (forall ((tv30 Zipper)) (= (main tv30) (sum (repr tv30)))))
  (assert (forall ((tv34 Unit)) (= (tf10 (Nil tv34)) Zero)))
  (assert (forall ((tv36 List) (tv35 Nat)) (= (tf10 (Cons tv35 tv36)) (plus tv35 (tf9 tv36)))))
  (assert (forall ((tv32 List)) (= (tf9 tv32) (tf10 tv32))))
  (assert (forall ((tv31 List)) (= (revNew tv31) (tf9 tv31))))
  (assert (forall ((tv40 Unit)) (= (tf12 (Nil tv40)) Zero)))
  (assert (forall ((tv42 List) (tv41 Nat)) (= (tf12 (Cons tv41 tv42)) (plus (tf11 tv42) tv41))))
  (assert (forall ((tv38 List)) (= (tf11 tv38) (tf12 tv38))))
  (assert (forall ((tv37 List)) (= (listreprNew tv37) (tf11 tv37))))
  (assert (forall ((tv45 List) (tv44 List)) (= (tf13 (Zip tv44 tv45)) (plus (revNew tv44) (listreprNew tv45)))))
  (assert (forall ((tv43 Zipper)) (= (reprNew tv43) (tf13 tv43))))
  (assert (forall ((tv46 Zipper)) (= (mainNew tv46) (reprNew tv46))))
  (assert (not (forall ((inp0 Zipper)) (= (main inp0) (mainNew inp0)))))
  (check-sat)
